N = 8;
H = 5;
T = 2;

avail = array3d(1..N, 1..H, 1..T, [1, 9, 5, 4, 7, 7, 2, 6, 7, 7, 4, 1, 8, 7, 6, 8, 6, 4, 9, 10, 10, 2, 5, 8, 4, 5, 5, 7, 8, 2, 6, 8, 1, 9, 10, 7, 6, 2, 7, 9, 10, 9, 8, 4, 9, 9, 6, 9, 0, 6, 4, 10, 3, 9, 1, 3, 8, 5, 10, 4, 3, 3, 1, 0, 5, 0, 6, 10, 4, 3, 10, 10, 5, 2, 1, 4, 9, 7, 7, 2]);

r = array2d(1..H, 1..T, [0, 2, 3, 3, 4, 1, 2, 3, 1, 1]);
